(set-info :smt-lib-version 2.6)
(set-logic QF_SLIA)
(set-info :source |
Generated by: Joel Day, Thorsten Ehlers, Mitja Kulczynski, Federico Mora, Florin Manea, Dirk Nowotka, Danny Poulsen, Zhengyang Lu
Application: Test WOORPJE
Target solver: WOORPJE
Publications: Day, J. D., Ehlers, T., Kulczynski, M., Manea, F., Nowotka, D., & Poulsen, D. B. (2019). On solving word equations using SAT. In RP 2019
Description: Enriches a system of 30 word equations by suitable linear constraints
|)
(set-info :license "https://creativecommons.org/licenses/by/4.0/")
(set-info :category "random")
(set-info :status unknown)

(declare-fun G () String)
(declare-fun E () String)
(declare-fun A () String)
(assert (= (str.++  "cdbfaffbe" E "bceae")  (str.++  "cdbf" A "ffbefcccbec" A "bf" G "daebce" A "e") ))
(assert (= (str.++  "af" A "eceeebbdccd" A "fcdfffcdeeeedccdd" A "bfbbdcb")  (str.++  A "faeceeebbdccdafcdfffcdeeeedccddabfbbdcb" "") ))
(assert (= (str.++  A "cdeccdfbbcacafac" A "fefcf" A "bbeabbebcbcf" A "ccc")  (str.++  "acdeccdfbbc" A "caf" A "cafefcf" A "bbeabbebcbcf" A "ccc") ))
(assert (>=(* (str.len G) 12) 132))
(assert (<=(* (str.len G) 7) 322))
(assert (>=(* (str.len E) 1) 21))
(check-sat)

(exit)
